82 52 86 87 74 58 77 25 
72 42 39 36 38 41 81 94 96 54 
90 99 57 22 20 49 24 
5 45 2 7 79 73 78 6 8 46 3 1 4 100 70 
14 47 16 15 12 11 9 53 
71 67 62 50 34 26 32 93 
65 83 59 75 97 10 13 17 60 
92 95 63 33 28 27 29 31 30 85 76 51 84 56 66 
61 44 40 35 37 43 68 
64 19 23 21 18 48 89 91 80 
69 98 88 55 
